p edge 169 3328
e 1 15 8
e 1 29 9
e 1 43 7
e 1 57 1
e 1 71 4
e 1 85 3
e 1 99 1
e 1 113 8
e 1 127 4
e 1 141 1
e 1 155 10
e 1 169 1
e 1 2 3
e 1 3 7
e 1 4 4
e 1 5 4
e 1 6 9
e 1 7 9
e 1 8 5
e 1 9 4
e 1 10 9
e 1 11 6
e 1 12 5
e 1 13 8
e 1 14 4
e 1 27 6
e 1 40 8
e 1 53 5
e 1 66 3
e 1 79 7
e 1 92 6
e 1 105 2
e 1 118 1
e 1 131 9
e 1 144 9
e 1 157 10
e 2 16 10
e 2 30 3
e 2 44 5
e 2 58 2
e 2 72 7
e 2 86 7
e 2 100 8
e 2 114 3
e 2 128 9
e 2 142 3
e 2 156 6
e 2 14 7
e 2 3 5
e 2 4 2
e 2 5 5
e 2 6 6
e 2 7 6
e 2 8 10
e 2 9 2
e 2 10 2
e 2 11 3
e 2 12 4
e 2 13 2
e 2 15 8
e 2 28 7
e 2 41 3
e 2 54 6
e 2 67 1
e 2 80 5
e 2 93 6
e 2 106 7
e 2 119 9
e 2 132 4
e 2 145 7
e 2 158 3
e 3 17 10
e 3 31 8
e 3 45 6
e 3 59 2
e 3 73 10
e 3 87 1
e 3 101 4
e 3 115 6
e 3 129 8
e 3 143 3
e 3 15 7
e 3 27 9
e 3 4 8
e 3 5 7
e 3 6 6
e 3 7 6
e 3 8 5
e 3 9 3
e 3 10 10
e 3 11 6
e 3 12 8
e 3 13 1
e 3 16 3
e 3 29 6
e 3 42 8
e 3 55 8
e 3 68 9
e 3 81 7
e 3 94 1
e 3 107 7
e 3 120 5
e 3 133 5
e 3 146 1
e 3 159 3
e 4 18 5
e 4 32 5
e 4 46 5
e 4 60 5
e 4 74 10
e 4 88 1
e 4 102 2
e 4 116 8
e 4 130 9
e 4 16 10
e 4 28 4
e 4 40 5
e 4 5 9
e 4 6 7
e 4 7 3
e 4 8 8
e 4 9 5
e 4 10 10
e 4 11 8
e 4 12 8
e 4 13 8
e 4 17 1
e 4 30 9
e 4 43 2
e 4 56 10
e 4 69 10
e 4 82 6
e 4 95 9
e 4 108 10
e 4 121 3
e 4 134 10
e 4 147 8
e 4 160 8
e 5 19 5
e 5 33 10
e 5 47 5
e 5 61 4
e 5 75 4
e 5 89 6
e 5 103 6
e 5 117 8
e 5 17 5
e 5 29 8
e 5 41 1
e 5 53 4
e 5 6 5
e 5 7 6
e 5 8 3
e 5 9 10
e 5 10 9
e 5 11 7
e 5 12 7
e 5 13 3
e 5 18 1
e 5 31 7
e 5 44 2
e 5 57 9
e 5 70 5
e 5 83 9
e 5 96 2
e 5 109 6
e 5 122 3
e 5 135 3
e 5 148 3
e 5 161 4
e 6 20 8
e 6 34 9
e 6 48 9
e 6 62 9
e 6 76 2
e 6 90 7
e 6 104 4
e 6 18 10
e 6 30 6
e 6 42 8
e 6 54 4
e 6 66 10
e 6 7 1
e 6 8 8
e 6 9 7
e 6 10 10
e 6 11 2
e 6 12 2
e 6 13 2
e 6 19 3
e 6 32 6
e 6 45 8
e 6 58 5
e 6 71 1
e 6 84 9
e 6 97 2
e 6 110 9
e 6 123 9
e 6 136 4
e 6 149 8
e 6 162 4
e 7 21 7
e 7 35 3
e 7 49 8
e 7 63 3
e 7 77 5
e 7 91 6
e 7 19 8
e 7 31 6
e 7 43 6
e 7 55 6
e 7 67 2
e 7 79 10
e 7 8 5
e 7 9 2
e 7 10 1
e 7 11 10
e 7 12 4
e 7 13 4
e 7 20 3
e 7 33 3
e 7 46 1
e 7 59 5
e 7 72 5
e 7 85 9
e 7 98 8
e 7 111 2
e 7 124 1
e 7 137 5
e 7 150 7
e 7 163 6
e 8 22 4
e 8 36 3
e 8 50 3
e 8 64 10
e 8 78 10
e 8 20 8
e 8 32 2
e 8 44 10
e 8 56 9
e 8 68 7
e 8 80 10
e 8 92 5
e 8 9 7
e 8 10 8
e 8 11 10
e 8 12 7
e 8 13 9
e 8 21 8
e 8 34 10
e 8 47 10
e 8 60 7
e 8 73 5
e 8 86 7
e 8 99 8
e 8 112 9
e 8 125 9
e 8 138 1
e 8 151 4
e 8 164 9
e 9 23 7
e 9 37 8
e 9 51 5
e 9 65 6
e 9 21 10
e 9 33 6
e 9 45 3
e 9 57 10
e 9 69 7
e 9 81 3
e 9 93 5
e 9 105 8
e 9 10 10
e 9 11 3
e 9 12 5
e 9 13 9
e 9 22 9
e 9 35 5
e 9 48 10
e 9 61 8
e 9 74 7
e 9 87 6
e 9 100 2
e 9 113 5
e 9 126 7
e 9 139 9
e 9 152 3
e 9 165 4
e 10 24 8
e 10 38 5
e 10 52 3
e 10 22 4
e 10 34 4
e 10 46 6
e 10 58 5
e 10 70 5
e 10 82 10
e 10 94 9
e 10 106 7
e 10 118 9
e 10 11 10
e 10 12 7
e 10 13 4
e 10 23 4
e 10 36 8
e 10 49 7
e 10 62 5
e 10 75 3
e 10 88 8
e 10 101 3
e 10 114 1
e 10 127 3
e 10 140 9
e 10 153 8
e 10 166 2
e 11 25 5
e 11 39 1
e 11 23 10
e 11 35 5
e 11 47 7
e 11 59 1
e 11 71 3
e 11 83 5
e 11 95 9
e 11 107 6
e 11 119 10
e 11 131 7
e 11 12 8
e 11 13 3
e 11 24 8
e 11 37 6
e 11 50 1
e 11 63 9
e 11 76 4
e 11 89 3
e 11 102 2
e 11 115 8
e 11 128 6
e 11 141 10
e 11 154 2
e 11 167 8
e 12 26 6
e 12 24 3
e 12 36 4
e 12 48 8
e 12 60 9
e 12 72 4
e 12 84 9
e 12 96 6
e 12 108 1
e 12 120 5
e 12 132 1
e 12 144 2
e 12 13 1
e 12 25 4
e 12 38 4
e 12 51 6
e 12 64 5
e 12 77 9
e 12 90 9
e 12 103 8
e 12 116 8
e 12 129 6
e 12 142 8
e 12 155 3
e 12 168 6
e 13 25 1
e 13 37 6
e 13 49 7
e 13 61 1
e 13 73 5
e 13 85 2
e 13 97 8
e 13 109 9
e 13 121 10
e 13 133 1
e 13 145 10
e 13 157 5
e 13 26 10
e 13 39 4
e 13 52 1
e 13 65 7
e 13 78 9
e 13 91 8
e 13 104 3
e 13 117 8
e 13 130 7
e 13 143 7
e 13 156 7
e 13 169 1
e 14 28 2
e 14 42 7
e 14 56 1
e 14 70 7
e 14 84 9
e 14 98 1
e 14 112 10
e 14 126 4
e 14 140 4
e 14 154 8
e 14 168 6
e 14 15 10
e 14 16 4
e 14 17 10
e 14 18 7
e 14 19 1
e 14 20 5
e 14 21 10
e 14 22 8
e 14 23 6
e 14 24 10
e 14 25 3
e 14 26 2
e 14 27 5
e 14 40 5
e 14 53 1
e 14 66 7
e 14 79 7
e 14 92 6
e 14 105 2
e 14 118 5
e 14 131 2
e 14 144 3
e 14 157 5
e 15 29 5
e 15 43 10
e 15 57 6
e 15 71 3
e 15 85 1
e 15 99 7
e 15 113 1
e 15 127 6
e 15 141 4
e 15 155 3
e 15 169 8
e 15 27 5
e 15 16 6
e 15 17 7
e 15 18 10
e 15 19 10
e 15 20 1
e 15 21 2
e 15 22 4
e 15 23 9
e 15 24 6
e 15 25 3
e 15 26 8
e 15 28 6
e 15 41 2
e 15 54 3
e 15 67 8
e 15 80 8
e 15 93 4
e 15 106 10
e 15 119 9
e 15 132 3
e 15 145 10
e 15 158 6
e 16 30 3
e 16 44 9
e 16 58 6
e 16 72 4
e 16 86 1
e 16 100 8
e 16 114 10
e 16 128 4
e 16 142 7
e 16 156 9
e 16 28 5
e 16 40 5
e 16 17 6
e 16 18 6
e 16 19 9
e 16 20 10
e 16 21 2
e 16 22 1
e 16 23 1
e 16 24 10
e 16 25 4
e 16 26 4
e 16 29 7
e 16 42 1
e 16 55 10
e 16 68 6
e 16 81 1
e 16 94 5
e 16 107 9
e 16 120 2
e 16 133 5
e 16 146 10
e 16 159 8
e 17 31 9
e 17 45 9
e 17 59 5
e 17 73 1
e 17 87 3
e 17 101 5
e 17 115 4
e 17 129 1
e 17 143 6
e 17 29 1
e 17 41 4
e 17 53 9
e 17 18 4
e 17 19 7
e 17 20 8
e 17 21 7
e 17 22 1
e 17 23 4
e 17 24 5
e 17 25 4
e 17 26 7
e 17 30 4
e 17 43 1
e 17 56 3
e 17 69 4
e 17 82 1
e 17 95 10
e 17 108 10
e 17 121 2
e 17 134 6
e 17 147 1
e 17 160 7
e 18 32 10
e 18 46 9
e 18 60 6
e 18 74 4
e 18 88 9
e 18 102 10
e 18 116 2
e 18 130 8
e 18 30 8
e 18 42 2
e 18 54 5
e 18 66 9
e 18 19 2
e 18 20 6
e 18 21 3
e 18 22 1
e 18 23 9
e 18 24 10
e 18 25 1
e 18 26 1
e 18 31 5
e 18 44 1
e 18 57 8
e 18 70 8
e 18 83 6
e 18 96 4
e 18 109 10
e 18 122 6
e 18 135 9
e 18 148 3
e 18 161 1
e 19 33 5
e 19 47 7
e 19 61 7
e 19 75 4
e 19 89 5
e 19 103 6
e 19 117 6
e 19 31 3
e 19 43 1
e 19 55 4
e 19 67 5
e 19 79 8
e 19 20 10
e 19 21 1
e 19 22 1
e 19 23 2
e 19 24 3
e 19 25 7
e 19 26 1
e 19 32 6
e 19 45 6
e 19 58 10
e 19 71 4
e 19 84 1
e 19 97 4
e 19 110 9
e 19 123 9
e 19 136 6
e 19 149 7
e 19 162 8
e 20 34 9
e 20 48 1
e 20 62 10
e 20 76 1
e 20 90 8
e 20 104 1
e 20 32 2
e 20 44 5
e 20 56 5
e 20 68 7
e 20 80 6
e 20 92 4
e 20 21 3
e 20 22 7
e 20 23 3
e 20 24 10
e 20 25 3
e 20 26 9
e 20 33 6
e 20 46 1
e 20 59 1
e 20 72 3
e 20 85 9
e 20 98 1
e 20 111 3
e 20 124 8
e 20 137 4
e 20 150 8
e 20 163 8
e 21 35 4
e 21 49 6
e 21 63 1
e 21 77 7
e 21 91 7
e 21 33 1
e 21 45 1
e 21 57 1
e 21 69 6
e 21 81 8
e 21 93 3
e 21 105 3
e 21 22 2
e 21 23 9
e 21 24 9
e 21 25 3
e 21 26 8
e 21 34 4
e 21 47 5
e 21 60 8
e 21 73 4
e 21 86 9
e 21 99 1
e 21 112 2
e 21 125 1
e 21 138 9
e 21 151 2
e 21 164 7
e 22 36 2
e 22 50 1
e 22 64 9
e 22 78 1
e 22 34 1
e 22 46 2
e 22 58 1
e 22 70 1
e 22 82 2
e 22 94 8
e 22 106 7
e 22 118 2
e 22 23 4
e 22 24 10
e 22 25 8
e 22 26 2
e 22 35 5
e 22 48 4
e 22 61 3
e 22 74 3
e 22 87 7
e 22 100 9
e 22 113 6
e 22 126 1
e 22 139 6
e 22 152 3
e 22 165 6
e 23 37 8
e 23 51 9
e 23 65 6
e 23 35 5
e 23 47 6
e 23 59 10
e 23 71 5
e 23 83 3
e 23 95 10
e 23 107 5
e 23 119 6
e 23 131 4
e 23 24 10
e 23 25 7
e 23 26 7
e 23 36 8
e 23 49 3
e 23 62 1
e 23 75 7
e 23 88 5
e 23 101 8
e 23 114 3
e 23 127 6
e 23 140 7
e 23 153 1
e 23 166 4
e 24 38 10
e 24 52 7
e 24 36 6
e 24 48 7
e 24 60 4
e 24 72 5
e 24 84 3
e 24 96 2
e 24 108 7
e 24 120 8
e 24 132 8
e 24 144 3
e 24 25 5
e 24 26 3
e 24 37 2
e 24 50 4
e 24 63 5
e 24 76 5
e 24 89 5
e 24 102 3
e 24 115 8
e 24 128 6
e 24 141 4
e 24 154 9
e 24 167 5
e 25 39 6
e 25 37 8
e 25 49 1
e 25 61 8
e 25 73 10
e 25 85 6
e 25 97 10
e 25 109 8
e 25 121 9
e 25 133 1
e 25 145 4
e 25 157 9
e 25 26 4
e 25 38 1
e 25 51 3
e 25 64 4
e 25 77 3
e 25 90 9
e 25 103 5
e 25 116 1
e 25 129 7
e 25 142 2
e 25 155 10
e 25 168 2
e 26 38 10
e 26 50 7
e 26 62 4
e 26 74 10
e 26 86 5
e 26 98 7
e 26 110 1
e 26 122 7
e 26 134 1
e 26 146 10
e 26 158 1
e 26 39 6
e 26 52 9
e 26 65 3
e 26 78 4
e 26 91 7
e 26 104 9
e 26 117 7
e 26 130 7
e 26 143 8
e 26 156 1
e 26 169 10
e 27 41 6
e 27 55 2
e 27 69 7
e 27 83 2
e 27 97 4
e 27 111 6
e 27 125 6
e 27 139 1
e 27 153 2
e 27 167 7
e 27 28 3
e 27 29 2
e 27 30 9
e 27 31 10
e 27 32 6
e 27 33 1
e 27 34 8
e 27 35 5
e 27 36 1
e 27 37 7
e 27 38 2
e 27 39 6
e 27 40 5
e 27 53 5
e 27 66 4
e 27 79 3
e 27 92 7
e 27 105 9
e 27 118 4
e 27 131 8
e 27 144 3
e 27 157 5
e 28 42 7
e 28 56 10
e 28 70 6
e 28 84 5
e 28 98 2
e 28 112 8
e 28 126 10
e 28 140 6
e 28 154 2
e 28 168 6
e 28 40 4
e 28 29 4
e 28 30 10
e 28 31 1
e 28 32 7
e 28 33 10
e 28 34 9
e 28 35 5
e 28 36 2
e 28 37 9
e 28 38 6
e 28 39 9
e 28 41 7
e 28 54 6
e 28 67 2
e 28 80 6
e 28 93 6
e 28 106 10
e 28 119 9
e 28 132 6
e 28 145 7
e 28 158 8
e 29 43 7
e 29 57 1
e 29 71 6
e 29 85 5
e 29 99 8
e 29 113 3
e 29 127 3
e 29 141 2
e 29 155 4
e 29 169 3
e 29 41 3
e 29 53 1
e 29 30 8
e 29 31 5
e 29 32 4
e 29 33 10
e 29 34 2
e 29 35 5
e 29 36 4
e 29 37 4
e 29 38 4
e 29 39 6
e 29 42 10
e 29 55 9
e 29 68 7
e 29 81 4
e 29 94 9
e 29 107 3
e 29 120 8
e 29 133 8
e 29 146 5
e 29 159 10
e 30 44 7
e 30 58 5
e 30 72 7
e 30 86 9
e 30 100 3
e 30 114 5
e 30 128 3
e 30 142 10
e 30 156 7
e 30 42 6
e 30 54 8
e 30 66 4
e 30 31 3
e 30 32 1
e 30 33 3
e 30 34 9
e 30 35 4
e 30 36 9
e 30 37 8
e 30 38 2
e 30 39 3
e 30 43 6
e 30 56 6
e 30 69 5
e 30 82 5
e 30 95 6
e 30 108 3
e 30 121 4
e 30 134 3
e 30 147 1
e 30 160 9
e 31 45 1
e 31 59 2
e 31 73 6
e 31 87 1
e 31 101 4
e 31 115 3
e 31 129 2
e 31 143 9
e 31 43 8
e 31 55 2
e 31 67 10
e 31 79 9
e 31 32 10
e 31 33 3
e 31 34 5
e 31 35 9
e 31 36 5
e 31 37 9
e 31 38 7
e 31 39 2
e 31 44 1
e 31 57 9
e 31 70 10
e 31 83 3
e 31 96 10
e 31 109 3
e 31 122 8
e 31 135 7
e 31 148 3
e 31 161 9
e 32 46 4
e 32 60 4
e 32 74 9
e 32 88 3
e 32 102 10
e 32 116 5
e 32 130 5
e 32 44 2
e 32 56 5
e 32 68 6
e 32 80 1
e 32 92 4
e 32 33 5
e 32 34 10
e 32 35 5
e 32 36 8
e 32 37 9
e 32 38 7
e 32 39 10
e 32 45 8
e 32 58 4
e 32 71 1
e 32 84 5
e 32 97 2
e 32 110 7
e 32 123 3
e 32 136 3
e 32 149 5
e 32 162 10
e 33 47 8
e 33 61 10
e 33 75 9
e 33 89 9
e 33 103 4
e 33 117 6
e 33 45 8
e 33 57 4
e 33 69 9
e 33 81 9
e 33 93 2
e 33 105 9
e 33 34 9
e 33 35 1
e 33 36 7
e 33 37 7
e 33 38 6
e 33 39 8
e 33 46 2
e 33 59 8
e 33 72 10
e 33 85 10
e 33 98 6
e 33 111 9
e 33 124 2
e 33 137 10
e 33 150 10
e 33 163 2
e 34 48 4
e 34 62 9
e 34 76 8
e 34 90 8
e 34 104 6
e 34 46 8
e 34 58 8
e 34 70 9
e 34 82 7
e 34 94 10
e 34 106 7
e 34 118 6
e 34 35 8
e 34 36 2
e 34 37 4
e 34 38 4
e 34 39 8
e 34 47 8
e 34 60 3
e 34 73 3
e 34 86 7
e 34 99 4
e 34 112 8
e 34 125 8
e 34 138 5
e 34 151 3
e 34 164 1
e 35 49 5
e 35 63 9
e 35 77 5
e 35 91 9
e 35 47 3
e 35 59 2
e 35 71 2
e 35 83 2
e 35 95 7
e 35 107 9
e 35 119 2
e 35 131 9
e 35 36 10
e 35 37 8
e 35 38 10
e 35 39 5
e 35 48 6
e 35 61 5
e 35 74 3
e 35 87 3
e 35 100 9
e 35 113 8
e 35 126 5
e 35 139 3
e 35 152 10
e 35 165 7
e 36 50 6
e 36 64 10
e 36 78 6
e 36 48 7
e 36 60 2
e 36 72 3
e 36 84 3
e 36 96 7
e 36 108 5
e 36 120 2
e 36 132 1
e 36 144 5
e 36 37 1
e 36 38 7
e 36 39 9
e 36 49 6
e 36 62 10
e 36 75 6
e 36 88 6
e 36 101 3
e 36 114 2
e 36 127 2
e 36 140 9
e 36 153 7
e 36 166 1
e 37 51 10
e 37 65 9
e 37 49 2
e 37 61 4
e 37 73 5
e 37 85 9
e 37 97 9
e 37 109 10
e 37 121 10
e 37 133 2
e 37 145 1
e 37 157 9
e 37 38 4
e 37 39 4
e 37 50 10
e 37 63 8
e 37 76 5
e 37 89 6
e 37 102 9
e 37 115 4
e 37 128 7
e 37 141 6
e 37 154 4
e 37 167 9
e 38 52 6
e 38 50 2
e 38 62 1
e 38 74 10
e 38 86 8
e 38 98 5
e 38 110 10
e 38 122 10
e 38 134 4
e 38 146 3
e 38 158 4
e 38 39 7
e 38 51 4
e 38 64 8
e 38 77 3
e 38 90 7
e 38 103 4
e 38 116 8
e 38 129 1
e 38 142 8
e 38 155 6
e 38 168 6
e 39 51 2
e 39 63 3
e 39 75 7
e 39 87 4
e 39 99 9
e 39 111 7
e 39 123 3
e 39 135 3
e 39 147 7
e 39 159 2
e 39 52 4
e 39 65 8
e 39 78 5
e 39 91 7
e 39 104 4
e 39 117 5
e 39 130 9
e 39 143 8
e 39 156 8
e 39 169 10
e 40 54 4
e 40 68 6
e 40 82 2
e 40 96 9
e 40 110 3
e 40 124 6
e 40 138 1
e 40 152 6
e 40 166 10
e 40 41 8
e 40 42 2
e 40 43 8
e 40 44 10
e 40 45 7
e 40 46 1
e 40 47 5
e 40 48 2
e 40 49 10
e 40 50 2
e 40 51 3
e 40 52 5
e 40 53 1
e 40 66 2
e 40 79 8
e 40 92 7
e 40 105 9
e 40 118 6
e 40 131 5
e 40 144 8
e 40 157 7
e 41 55 3
e 41 69 3
e 41 83 9
e 41 97 5
e 41 111 7
e 41 125 3
e 41 139 2
e 41 153 9
e 41 167 9
e 41 53 8
e 41 42 10
e 41 43 8
e 41 44 10
e 41 45 3
e 41 46 2
e 41 47 3
e 41 48 9
e 41 49 2
e 41 50 6
e 41 51 3
e 41 52 7
e 41 54 5
e 41 67 7
e 41 80 10
e 41 93 1
e 41 106 8
e 41 119 4
e 41 132 6
e 41 145 9
e 41 158 6
e 42 56 1
e 42 70 2
e 42 84 4
e 42 98 2
e 42 112 10
e 42 126 9
e 42 140 5
e 42 154 2
e 42 168 10
e 42 54 8
e 42 66 10
e 42 43 2
e 42 44 5
e 42 45 9
e 42 46 10
e 42 47 5
e 42 48 2
e 42 49 4
e 42 50 7
e 42 51 6
e 42 52 10
e 42 55 4
e 42 68 4
e 42 81 8
e 42 94 3
e 42 107 6
e 42 120 10
e 42 133 8
e 42 146 9
e 42 159 8
e 43 57 6
e 43 71 3
e 43 85 10
e 43 99 7
e 43 113 5
e 43 127 8
e 43 141 6
e 43 155 1
e 43 169 9
e 43 55 9
e 43 67 6
e 43 79 7
e 43 44 9
e 43 45 9
e 43 46 6
e 43 47 2
e 43 48 7
e 43 49 10
e 43 50 9
e 43 51 5
e 43 52 6
e 43 56 3
e 43 69 7
e 43 82 7
e 43 95 1
e 43 108 10
e 43 121 1
e 43 134 8
e 43 147 7
e 43 160 7
e 44 58 9
e 44 72 4
e 44 86 3
e 44 100 6
e 44 114 10
e 44 128 7
e 44 142 1
e 44 156 1
e 44 56 7
e 44 68 3
e 44 80 9
e 44 92 9
e 44 45 4
e 44 46 6
e 44 47 5
e 44 48 3
e 44 49 4
e 44 50 5
e 44 51 8
e 44 52 4
e 44 57 9
e 44 70 1
e 44 83 4
e 44 96 3
e 44 109 10
e 44 122 10
e 44 135 9
e 44 148 10
e 44 161 8
e 45 59 6
e 45 73 2
e 45 87 2
e 45 101 2
e 45 115 8
e 45 129 9
e 45 143 7
e 45 57 2
e 45 69 5
e 45 81 3
e 45 93 5
e 45 105 2
e 45 46 9
e 45 47 9
e 45 48 6
e 45 49 3
e 45 50 1
e 45 51 1
e 45 52 7
e 45 58 3
e 45 71 3
e 45 84 1
e 45 97 9
e 45 110 10
e 45 123 2
e 45 136 1
e 45 149 8
e 45 162 8
e 46 60 5
e 46 74 4
e 46 88 9
e 46 102 1
e 46 116 1
e 46 130 10
e 46 58 2
e 46 70 1
e 46 82 10
e 46 94 3
e 46 106 3
e 46 118 2
e 46 47 2
e 46 48 4
e 46 49 7
e 46 50 6
e 46 51 4
e 46 52 9
e 46 59 8
e 46 72 9
e 46 85 6
e 46 98 5
e 46 111 7
e 46 124 9
e 46 137 6
e 46 150 3
e 46 163 6
e 47 61 6
e 47 75 8
e 47 89 8
e 47 103 9
e 47 117 4
e 47 59 6
e 47 71 10
e 47 83 4
e 47 95 5
e 47 107 5
e 47 119 6
e 47 131 5
e 47 48 7
e 47 49 5
e 47 50 8
e 47 51 8
e 47 52 9
e 47 60 4
e 47 73 6
e 47 86 2
e 47 99 10
e 47 112 10
e 47 125 3
e 47 138 4
e 47 151 6
e 47 164 1
e 48 62 3
e 48 76 4
e 48 90 7
e 48 104 5
e 48 60 7
e 48 72 2
e 48 84 8
e 48 96 2
e 48 108 6
e 48 120 8
e 48 132 7
e 48 144 7
e 48 49 9
e 48 50 5
e 48 51 1
e 48 52 2
e 48 61 8
e 48 74 2
e 48 87 8
e 48 100 6
e 48 113 4
e 48 126 9
e 48 139 4
e 48 152 2
e 48 165 5
e 49 63 8
e 49 77 6
e 49 91 4
e 49 61 7
e 49 73 5
e 49 85 5
e 49 97 7
e 49 109 9
e 49 121 4
e 49 133 7
e 49 145 3
e 49 157 4
e 49 50 8
e 49 51 2
e 49 52 3
e 49 62 4
e 49 75 2
e 49 88 10
e 49 101 7
e 49 114 6
e 49 127 9
e 49 140 2
e 49 153 4
e 49 166 4
e 50 64 9
e 50 78 1
e 50 62 6
e 50 74 6
e 50 86 4
e 50 98 10
e 50 110 2
e 50 122 5
e 50 134 2
e 50 146 6
e 50 158 6
e 50 51 6
e 50 52 2
e 50 63 6
e 50 76 1
e 50 89 9
e 50 102 9
e 50 115 10
e 50 128 6
e 50 141 5
e 50 154 8
e 50 167 7
e 51 65 2
e 51 63 5
e 51 75 2
e 51 87 8
e 51 99 8
e 51 111 1
e 51 123 2
e 51 135 7
e 51 147 8
e 51 159 6
e 51 52 1
e 51 64 5
e 51 77 8
e 51 90 7
e 51 103 7
e 51 116 3
e 51 129 10
e 51 142 9
e 51 155 5
e 51 168 6
e 52 64 1
e 52 76 6
e 52 88 9
e 52 100 10
e 52 112 7
e 52 124 4
e 52 136 4
e 52 148 6
e 52 160 4
e 52 65 6
e 52 78 1
e 52 91 8
e 52 104 5
e 52 117 9
e 52 130 10
e 52 143 10
e 52 156 10
e 52 169 2
e 53 67 6
e 53 81 5
e 53 95 7
e 53 109 2
e 53 123 8
e 53 137 1
e 53 151 10
e 53 165 9
e 53 54 3
e 53 55 7
e 53 56 1
e 53 57 6
e 53 58 3
e 53 59 10
e 53 60 7
e 53 61 3
e 53 62 6
e 53 63 3
e 53 64 8
e 53 65 5
e 53 66 4
e 53 79 7
e 53 92 2
e 53 105 8
e 53 118 3
e 53 131 1
e 53 144 10
e 53 157 9
e 54 68 5
e 54 82 9
e 54 96 9
e 54 110 3
e 54 124 7
e 54 138 3
e 54 152 1
e 54 166 9
e 54 66 8
e 54 55 5
e 54 56 4
e 54 57 5
e 54 58 2
e 54 59 7
e 54 60 2
e 54 61 9
e 54 62 3
e 54 63 9
e 54 64 1
e 54 65 8
e 54 67 2
e 54 80 1
e 54 93 6
e 54 106 8
e 54 119 9
e 54 132 10
e 54 145 5
e 54 158 1
e 55 69 4
e 55 83 2
e 55 97 4
e 55 111 8
e 55 125 7
e 55 139 5
e 55 153 10
e 55 167 6
e 55 67 3
e 55 79 8
e 55 56 2
e 55 57 4
e 55 58 1
e 55 59 8
e 55 60 5
e 55 61 10
e 55 62 6
e 55 63 4
e 55 64 2
e 55 65 2
e 55 68 10
e 55 81 1
e 55 94 1
e 55 107 1
e 55 120 2
e 55 133 10
e 55 146 7
e 55 159 4
e 56 70 1
e 56 84 3
e 56 98 3
e 56 112 5
e 56 126 8
e 56 140 9
e 56 154 2
e 56 168 7
e 56 68 9
e 56 80 7
e 56 92 6
e 56 57 4
e 56 58 9
e 56 59 7
e 56 60 10
e 56 61 9
e 56 62 5
e 56 63 7
e 56 64 8
e 56 65 9
e 56 69 10
e 56 82 7
e 56 95 1
e 56 108 3
e 56 121 7
e 56 134 4
e 56 147 6
e 56 160 6
e 57 71 8
e 57 85 1
e 57 99 6
e 57 113 1
e 57 127 10
e 57 141 4
e 57 155 2
e 57 169 3
e 57 69 1
e 57 81 6
e 57 93 1
e 57 105 8
e 57 58 7
e 57 59 9
e 57 60 4
e 57 61 9
e 57 62 4
e 57 63 7
e 57 64 6
e 57 65 10
e 57 70 1
e 57 83 3
e 57 96 5
e 57 109 2
e 57 122 10
e 57 135 5
e 57 148 10
e 57 161 10
e 58 72 8
e 58 86 2
e 58 100 2
e 58 114 5
e 58 128 3
e 58 142 2
e 58 156 4
e 58 70 1
e 58 82 3
e 58 94 6
e 58 106 3
e 58 118 3
e 58 59 2
e 58 60 6
e 58 61 10
e 58 62 3
e 58 63 4
e 58 64 5
e 58 65 3
e 58 71 9
e 58 84 2
e 58 97 3
e 58 110 8
e 58 123 7
e 58 136 1
e 58 149 7
e 58 162 7
e 59 73 1
e 59 87 5
e 59 101 10
e 59 115 3
e 59 129 10
e 59 143 8
e 59 71 1
e 59 83 4
e 59 95 3
e 59 107 3
e 59 119 10
e 59 131 3
e 59 60 2
e 59 61 10
e 59 62 7
e 59 63 8
e 59 64 10
e 59 65 1
e 59 72 4
e 59 85 8
e 59 98 10
e 59 111 10
e 59 124 9
e 59 137 10
e 59 150 5
e 59 163 5
e 60 74 6
e 60 88 4
e 60 102 5
e 60 116 5
e 60 130 3
e 60 72 1
e 60 84 1
e 60 96 5
e 60 108 10
e 60 120 5
e 60 132 10
e 60 144 4
e 60 61 9
e 60 62 5
e 60 63 1
e 60 64 10
e 60 65 6
e 60 73 8
e 60 86 4
e 60 99 10
e 60 112 5
e 60 125 8
e 60 138 7
e 60 151 4
e 60 164 1
e 61 75 2
e 61 89 4
e 61 103 6
e 61 117 6
e 61 73 10
e 61 85 7
e 61 97 4
e 61 109 1
e 61 121 5
e 61 133 8
e 61 145 4
e 61 157 6
e 61 62 1
e 61 63 9
e 61 64 2
e 61 65 9
e 61 74 10
e 61 87 8
e 61 100 6
e 61 113 8
e 61 126 4
e 61 139 7
e 61 152 2
e 61 165 1
e 62 76 6
e 62 90 6
e 62 104 3
e 62 74 4
e 62 86 6
e 62 98 7
e 62 110 10
e 62 122 9
e 62 134 3
e 62 146 3
e 62 158 2
e 62 63 1
e 62 64 5
e 62 65 4
e 62 75 10
e 62 88 4
e 62 101 5
e 62 114 2
e 62 127 6
e 62 140 2
e 62 153 9
e 62 166 5
e 63 77 9
e 63 91 6
e 63 75 5
e 63 87 1
e 63 99 9
e 63 111 3
e 63 123 3
e 63 135 1
e 63 147 3
e 63 159 6
e 63 64 3
e 63 65 1
e 63 76 8
e 63 89 4
e 63 102 10
e 63 115 8
e 63 128 3
e 63 141 9
e 63 154 2
e 63 167 2
e 64 78 5
e 64 76 3
e 64 88 4
e 64 100 2
e 64 112 1
e 64 124 10
e 64 136 7
e 64 148 1
e 64 160 9
e 64 65 1
e 64 77 3
e 64 90 9
e 64 103 5
e 64 116 5
e 64 129 7
e 64 142 10
e 64 155 8
e 64 168 1
e 65 77 5
e 65 89 7
e 65 101 2
e 65 113 10
e 65 125 7
e 65 137 10
e 65 149 3
e 65 161 9
e 65 78 9
e 65 91 9
e 65 104 7
e 65 117 6
e 65 130 9
e 65 143 3
e 65 156 5
e 65 169 1
e 66 80 9
e 66 94 1
e 66 108 8
e 66 122 9
e 66 136 10
e 66 150 10
e 66 164 6
e 66 67 3
e 66 68 5
e 66 69 9
e 66 70 4
e 66 71 8
e 66 72 1
e 66 73 6
e 66 74 3
e 66 75 2
e 66 76 8
e 66 77 4
e 66 78 8
e 66 79 3
e 66 92 8
e 66 105 2
e 66 118 4
e 66 131 1
e 66 144 1
e 66 157 3
e 67 81 1
e 67 95 8
e 67 109 10
e 67 123 4
e 67 137 5
e 67 151 4
e 67 165 6
e 67 79 1
e 67 68 1
e 67 69 6
e 67 70 5
e 67 71 7
e 67 72 2
e 67 73 9
e 67 74 7
e 67 75 10
e 67 76 3
e 67 77 6
e 67 78 6
e 67 80 5
e 67 93 4
e 67 106 3
e 67 119 9
e 67 132 8
e 67 145 4
e 67 158 2
e 68 82 7
e 68 96 4
e 68 110 10
e 68 124 4
e 68 138 2
e 68 152 2
e 68 166 10
e 68 80 5
e 68 92 9
e 68 69 10
e 68 70 10
e 68 71 5
e 68 72 1
e 68 73 6
e 68 74 2
e 68 75 8
e 68 76 5
e 68 77 10
e 68 78 6
e 68 81 8
e 68 94 7
e 68 107 5
e 68 120 10
e 68 133 2
e 68 146 7
e 68 159 1
e 69 83 2
e 69 97 8
e 69 111 9
e 69 125 6
e 69 139 10
e 69 153 2
e 69 167 4
e 69 81 6
e 69 93 7
e 69 105 6
e 69 70 9
e 69 71 3
e 69 72 5
e 69 73 2
e 69 74 8
e 69 75 1
e 69 76 8
e 69 77 1
e 69 78 10
e 69 82 6
e 69 95 6
e 69 108 3
e 69 121 3
e 69 134 5
e 69 147 9
e 69 160 5
e 70 84 1
e 70 98 5
e 70 112 4
e 70 126 10
e 70 140 1
e 70 154 3
e 70 168 9
e 70 82 2
e 70 94 10
e 70 106 5
e 70 118 2
e 70 71 10
e 70 72 3
e 70 73 5
e 70 74 2
e 70 75 4
e 70 76 1
e 70 77 10
e 70 78 5
e 70 83 6
e 70 96 5
e 70 109 6
e 70 122 2
e 70 135 9
e 70 148 9
e 70 161 2
e 71 85 1
e 71 99 6
e 71 113 6
e 71 127 7
e 71 141 8
e 71 155 9
e 71 169 4
e 71 83 1
e 71 95 3
e 71 107 10
e 71 119 6
e 71 131 4
e 71 72 1
e 71 73 6
e 71 74 4
e 71 75 5
e 71 76 8
e 71 77 4
e 71 78 3
e 71 84 8
e 71 97 10
e 71 110 6
e 71 123 4
e 71 136 4
e 71 149 2
e 71 162 4
e 72 86 9
e 72 100 5
e 72 114 4
e 72 128 1
e 72 142 5
e 72 156 8
e 72 84 7
e 72 96 5
e 72 108 10
e 72 120 6
e 72 132 3
e 72 144 3
e 72 73 8
e 72 74 4
e 72 75 4
e 72 76 3
e 72 77 7
e 72 78 5
e 72 85 9
e 72 98 3
e 72 111 2
e 72 124 4
e 72 137 2
e 72 150 4
e 72 163 6
e 73 87 4
e 73 101 6
e 73 115 1
e 73 129 10
e 73 143 9
e 73 85 8
e 73 97 6
e 73 109 5
e 73 121 1
e 73 133 8
e 73 145 1
e 73 157 7
e 73 74 2
e 73 75 6
e 73 76 9
e 73 77 9
e 73 78 7
e 73 86 4
e 73 99 2
e 73 112 6
e 73 125 8
e 73 138 8
e 73 151 6
e 73 164 5
e 74 88 10
e 74 102 9
e 74 116 1
e 74 130 2
e 74 86 7
e 74 98 2
e 74 110 2
e 74 122 4
e 74 134 2
e 74 146 2
e 74 158 3
e 74 75 7
e 74 76 7
e 74 77 6
e 74 78 5
e 74 87 2
e 74 100 6
e 74 113 2
e 74 126 7
e 74 139 6
e 74 152 9
e 74 165 5
e 75 89 6
e 75 103 1
e 75 117 5
e 75 87 5
e 75 99 1
e 75 111 8
e 75 123 5
e 75 135 1
e 75 147 3
e 75 159 8
e 75 76 8
e 75 77 7
e 75 78 3
e 75 88 8
e 75 101 5
e 75 114 8
e 75 127 9
e 75 140 10
e 75 153 9
e 75 166 8
e 76 90 6
e 76 104 6
e 76 88 1
e 76 100 3
e 76 112 1
e 76 124 4
e 76 136 9
e 76 148 5
e 76 160 2
e 76 77 9
e 76 78 3
e 76 89 6
e 76 102 3
e 76 115 1
e 76 128 2
e 76 141 7
e 76 154 5
e 76 167 8
e 77 91 2
e 77 89 7
e 77 101 1
e 77 113 3
e 77 125 3
e 77 137 10
e 77 149 7
e 77 161 10
e 77 78 9
e 77 90 2
e 77 103 10
e 77 116 3
e 77 129 8
e 77 142 3
e 77 155 5
e 77 168 5
e 78 90 1
e 78 102 9
e 78 114 6
e 78 126 7
e 78 138 2
e 78 150 7
e 78 162 7
e 78 91 2
e 78 104 9
e 78 117 10
e 78 130 7
e 78 143 3
e 78 156 6
e 78 169 2
e 79 93 1
e 79 107 10
e 79 121 7
e 79 135 9
e 79 149 7
e 79 163 9
e 79 80 10
e 79 81 8
e 79 82 3
e 79 83 9
e 79 84 7
e 79 85 3
e 79 86 10
e 79 87 2
e 79 88 4
e 79 89 8
e 79 90 8
e 79 91 3
e 79 92 9
e 79 105 9
e 79 118 5
e 79 131 10
e 79 144 9
e 79 157 3
e 80 94 1
e 80 108 6
e 80 122 10
e 80 136 4
e 80 150 5
e 80 164 2
e 80 92 2
e 80 81 3
e 80 82 1
e 80 83 8
e 80 84 9
e 80 85 2
e 80 86 5
e 80 87 4
e 80 88 10
e 80 89 9
e 80 90 4
e 80 91 4
e 80 93 4
e 80 106 6
e 80 119 9
e 80 132 6
e 80 145 2
e 80 158 9
e 81 95 4
e 81 109 4
e 81 123 9
e 81 137 9
e 81 151 4
e 81 165 1
e 81 93 3
e 81 105 6
e 81 82 7
e 81 83 8
e 81 84 7
e 81 85 8
e 81 86 2
e 81 87 2
e 81 88 10
e 81 89 9
e 81 90 1
e 81 91 1
e 81 94 1
e 81 107 6
e 81 120 7
e 81 133 3
e 81 146 3
e 81 159 7
e 82 96 7
e 82 110 4
e 82 124 6
e 82 138 6
e 82 152 3
e 82 166 9
e 82 94 7
e 82 106 4
e 82 118 9
e 82 83 9
e 82 84 3
e 82 85 9
e 82 86 7
e 82 87 7
e 82 88 1
e 82 89 10
e 82 90 7
e 82 91 4
e 82 95 6
e 82 108 2
e 82 121 8
e 82 134 4
e 82 147 9
e 82 160 1
e 83 97 9
e 83 111 8
e 83 125 9
e 83 139 5
e 83 153 1
e 83 167 5
e 83 95 8
e 83 107 3
e 83 119 3
e 83 131 7
e 83 84 2
e 83 85 10
e 83 86 10
e 83 87 3
e 83 88 7
e 83 89 3
e 83 90 1
e 83 91 1
e 83 96 8
e 83 109 8
e 83 122 1
e 83 135 3
e 83 148 9
e 83 161 8
e 84 98 8
e 84 112 7
e 84 126 2
e 84 140 3
e 84 154 6
e 84 168 2
e 84 96 6
e 84 108 7
e 84 120 2
e 84 132 2
e 84 144 7
e 84 85 5
e 84 86 6
e 84 87 9
e 84 88 3
e 84 89 6
e 84 90 1
e 84 91 6
e 84 97 5
e 84 110 1
e 84 123 6
e 84 136 9
e 84 149 10
e 84 162 1
e 85 99 1
e 85 113 3
e 85 127 1
e 85 141 1
e 85 155 10
e 85 169 8
e 85 97 4
e 85 109 8
e 85 121 10
e 85 133 5
e 85 145 4
e 85 157 7
e 85 86 1
e 85 87 4
e 85 88 2
e 85 89 4
e 85 90 6
e 85 91 9
e 85 98 3
e 85 111 7
e 85 124 6
e 85 137 3
e 85 150 1
e 85 163 6
e 86 100 10
e 86 114 8
e 86 128 8
e 86 142 1
e 86 156 1
e 86 98 4
e 86 110 5
e 86 122 1
e 86 134 9
e 86 146 6
e 86 158 1
e 86 87 3
e 86 88 3
e 86 89 10
e 86 90 10
e 86 91 3
e 86 99 10
e 86 112 7
e 86 125 7
e 86 138 8
e 86 151 2
e 86 164 5
e 87 101 4
e 87 115 9
e 87 129 3
e 87 143 7
e 87 99 3
e 87 111 8
e 87 123 6
e 87 135 1
e 87 147 4
e 87 159 2
e 87 88 1
e 87 89 10
e 87 90 5
e 87 91 10
e 87 100 4
e 87 113 3
e 87 126 9
e 87 139 1
e 87 152 10
e 87 165 3
e 88 102 10
e 88 116 3
e 88 130 5
e 88 100 5
e 88 112 2
e 88 124 8
e 88 136 1
e 88 148 4
e 88 160 6
e 88 89 9
e 88 90 7
e 88 91 4
e 88 101 8
e 88 114 9
e 88 127 10
e 88 140 3
e 88 153 10
e 88 166 10
e 89 103 5
e 89 117 4
e 89 101 10
e 89 113 9
e 89 125 3
e 89 137 4
e 89 149 9
e 89 161 9
e 89 90 10
e 89 91 7
e 89 102 8
e 89 115 6
e 89 128 9
e 89 141 1
e 89 154 5
e 89 167 1
e 90 104 10
e 90 102 5
e 90 114 3
e 90 126 4
e 90 138 5
e 90 150 5
e 90 162 6
e 90 91 2
e 90 103 8
e 90 116 10
e 90 129 4
e 90 142 5
e 90 155 4
e 90 168 8
e 91 103 10
e 91 115 1
e 91 127 8
e 91 139 3
e 91 151 9
e 91 163 6
e 91 104 10
e 91 117 5
e 91 130 1
e 91 143 6
e 91 156 1
e 91 169 6
e 92 106 9
e 92 120 10
e 92 134 1
e 92 148 10
e 92 162 7
e 92 93 10
e 92 94 8
e 92 95 3
e 92 96 7
e 92 97 10
e 92 98 1
e 92 99 6
e 92 100 10
e 92 101 9
e 92 102 5
e 92 103 1
e 92 104 3
e 92 105 6
e 92 118 5
e 92 131 2
e 92 144 3
e 92 157 7
e 93 107 9
e 93 121 8
e 93 135 6
e 93 149 10
e 93 163 7
e 93 105 10
e 93 94 1
e 93 95 3
e 93 96 3
e 93 97 7
e 93 98 7
e 93 99 3
e 93 100 8
e 93 101 3
e 93 102 2
e 93 103 8
e 93 104 5
e 93 106 6
e 93 119 5
e 93 132 7
e 93 145 3
e 93 158 3
e 94 108 6
e 94 122 1
e 94 136 7
e 94 150 1
e 94 164 7
e 94 106 10
e 94 118 10
e 94 95 1
e 94 96 2
e 94 97 4
e 94 98 2
e 94 99 2
e 94 100 3
e 94 101 7
e 94 102 1
e 94 103 4
e 94 104 1
e 94 107 2
e 94 120 9
e 94 133 1
e 94 146 9
e 94 159 10
e 95 109 10
e 95 123 1
e 95 137 2
e 95 151 6
e 95 165 3
e 95 107 9
e 95 119 2
e 95 131 7
e 95 96 6
e 95 97 7
e 95 98 9
e 95 99 2
e 95 100 1
e 95 101 6
e 95 102 10
e 95 103 10
e 95 104 5
e 95 108 7
e 95 121 3
e 95 134 8
e 95 147 9
e 95 160 8
e 96 110 6
e 96 124 1
e 96 138 3
e 96 152 3
e 96 166 6
e 96 108 9
e 96 120 7
e 96 132 9
e 96 144 5
e 96 97 3
e 96 98 5
e 96 99 8
e 96 100 10
e 96 101 2
e 96 102 1
e 96 103 5
e 96 104 5
e 96 109 1
e 96 122 7
e 96 135 6
e 96 148 3
e 96 161 5
e 97 111 10
e 97 125 1
e 97 139 10
e 97 153 2
e 97 167 3
e 97 109 8
e 97 121 6
e 97 133 2
e 97 145 2
e 97 157 10
e 97 98 3
e 97 99 4
e 97 100 3
e 97 101 8
e 97 102 2
e 97 103 1
e 97 104 2
e 97 110 5
e 97 123 4
e 97 136 1
e 97 149 6
e 97 162 6
e 98 112 10
e 98 126 8
e 98 140 2
e 98 154 7
e 98 168 5
e 98 110 8
e 98 122 3
e 98 134 7
e 98 146 10
e 98 158 5
e 98 99 2
e 98 100 1
e 98 101 9
e 98 102 3
e 98 103 6
e 98 104 3
e 98 111 2
e 98 124 8
e 98 137 4
e 98 150 1
e 98 163 6
e 99 113 1
e 99 127 2
e 99 141 3
e 99 155 7
e 99 169 10
e 99 111 7
e 99 123 6
e 99 135 8
e 99 147 7
e 99 159 1
e 99 100 9
e 99 101 8
e 99 102 7
e 99 103 7
e 99 104 2
e 99 112 6
e 99 125 8
e 99 138 10
e 99 151 7
e 99 164 6
e 100 114 10
e 100 128 3
e 100 142 3
e 100 156 7
e 100 112 4
e 100 124 1
e 100 136 5
e 100 148 5
e 100 160 7
e 100 101 5
e 100 102 9
e 100 103 9
e 100 104 2
e 100 113 1
e 100 126 4
e 100 139 6
e 100 152 1
e 100 165 7
e 101 115 10
e 101 129 7
e 101 143 3
e 101 113 8
e 101 125 3
e 101 137 8
e 101 149 8
e 101 161 10
e 101 102 5
e 101 103 8
e 101 104 4
e 101 114 6
e 101 127 6
e 101 140 7
e 101 153 1
e 101 166 4
e 102 116 7
e 102 130 1
e 102 114 5
e 102 126 6
e 102 138 6
e 102 150 4
e 102 162 7
e 102 103 9
e 102 104 4
e 102 115 10
e 102 128 9
e 102 141 7
e 102 154 9
e 102 167 8
e 103 117 8
e 103 115 10
e 103 127 7
e 103 139 4
e 103 151 6
e 103 163 4
e 103 104 7
e 103 116 9
e 103 129 1
e 103 142 8
e 103 155 3
e 103 168 5
e 104 116 3
e 104 128 2
e 104 140 10
e 104 152 4
e 104 164 10
e 104 117 8
e 104 130 9
e 104 143 7
e 104 156 6
e 104 169 4
e 105 119 10
e 105 133 3
e 105 147 10
e 105 161 4
e 105 106 8
e 105 107 5
e 105 108 1
e 105 109 2
e 105 110 7
e 105 111 1
e 105 112 6
e 105 113 10
e 105 114 7
e 105 115 7
e 105 116 2
e 105 117 1
e 105 118 6
e 105 131 3
e 105 144 9
e 105 157 7
e 106 120 5
e 106 134 7
e 106 148 2
e 106 162 2
e 106 118 1
e 106 107 3
e 106 108 6
e 106 109 5
e 106 110 7
e 106 111 2
e 106 112 5
e 106 113 2
e 106 114 10
e 106 115 3
e 106 116 9
e 106 117 9
e 106 119 10
e 106 132 8
e 106 145 10
e 106 158 9
e 107 121 2
e 107 135 10
e 107 149 1
e 107 163 1
e 107 119 1
e 107 131 7
e 107 108 6
e 107 109 5
e 107 110 10
e 107 111 3
e 107 112 2
e 107 113 1
e 107 114 3
e 107 115 1
e 107 116 9
e 107 117 10
e 107 120 9
e 107 133 7
e 107 146 5
e 107 159 8
e 108 122 7
e 108 136 6
e 108 150 2
e 108 164 1
e 108 120 7
e 108 132 1
e 108 144 3
e 108 109 6
e 108 110 4
e 108 111 2
e 108 112 6
e 108 113 10
e 108 114 7
e 108 115 6
e 108 116 3
e 108 117 7
e 108 121 3
e 108 134 1
e 108 147 1
e 108 160 2
e 109 123 8
e 109 137 3
e 109 151 8
e 109 165 4
e 109 121 6
e 109 133 5
e 109 145 8
e 109 157 6
e 109 110 2
e 109 111 7
e 109 112 2
e 109 113 5
e 109 114 7
e 109 115 2
e 109 116 3
e 109 117 4
e 109 122 8
e 109 135 3
e 109 148 7
e 109 161 10
e 110 124 10
e 110 138 2
e 110 152 8
e 110 166 2
e 110 122 5
e 110 134 6
e 110 146 6
e 110 158 4
e 110 111 3
e 110 112 10
e 110 113 9
e 110 114 5
e 110 115 8
e 110 116 7
e 110 117 7
e 110 123 2
e 110 136 5
e 110 149 6
e 110 162 10
e 111 125 1
e 111 139 3
e 111 153 8
e 111 167 6
e 111 123 7
e 111 135 6
e 111 147 3
e 111 159 9
e 111 112 7
e 111 113 7
e 111 114 9
e 111 115 7
e 111 116 2
e 111 117 2
e 111 124 6
e 111 137 3
e 111 150 5
e 111 163 10
e 112 126 7
e 112 140 8
e 112 154 4
e 112 168 3
e 112 124 6
e 112 136 2
e 112 148 9
e 112 160 3
e 112 113 2
e 112 114 10
e 112 115 8
e 112 116 8
e 112 117 4
e 112 125 6
e 112 138 6
e 112 151 3
e 112 164 10
e 113 127 4
e 113 141 10
e 113 155 6
e 113 169 4
e 113 125 6
e 113 137 9
e 113 149 6
e 113 161 4
e 113 114 4
e 113 115 2
e 113 116 3
e 113 117 4
e 113 126 3
e 113 139 4
e 113 152 1
e 113 165 2
e 114 128 6
e 114 142 10
e 114 156 9
e 114 126 4
e 114 138 4
e 114 150 4
e 114 162 4
e 114 115 2
e 114 116 1
e 114 117 7
e 114 127 10
e 114 140 2
e 114 153 8
e 114 166 3
e 115 129 1
e 115 143 9
e 115 127 4
e 115 139 3
e 115 151 10
e 115 163 9
e 115 116 3
e 115 117 2
e 115 128 7
e 115 141 9
e 115 154 9
e 115 167 3
e 116 130 7
e 116 128 1
e 116 140 8
e 116 152 10
e 116 164 9
e 116 117 6
e 116 129 6
e 116 142 4
e 116 155 3
e 116 168 10
e 117 129 2
e 117 141 6
e 117 153 2
e 117 165 8
e 117 130 8
e 117 143 2
e 117 156 3
e 117 169 6
e 118 132 3
e 118 146 9
e 118 160 1
e 118 119 6
e 118 120 10
e 118 121 2
e 118 122 6
e 118 123 6
e 118 124 4
e 118 125 7
e 118 126 8
e 118 127 7
e 118 128 9
e 118 129 1
e 118 130 4
e 118 131 5
e 118 144 8
e 118 157 1
e 119 133 4
e 119 147 9
e 119 161 9
e 119 131 8
e 119 120 10
e 119 121 4
e 119 122 6
e 119 123 5
e 119 124 7
e 119 125 1
e 119 126 7
e 119 127 1
e 119 128 10
e 119 129 9
e 119 130 6
e 119 132 1
e 119 145 1
e 119 158 9
e 120 134 6
e 120 148 1
e 120 162 6
e 120 132 3
e 120 144 9
e 120 121 4
e 120 122 4
e 120 123 3
e 120 124 7
e 120 125 1
e 120 126 3
e 120 127 7
e 120 128 6
e 120 129 3
e 120 130 8
e 120 133 3
e 120 146 9
e 120 159 9
e 121 135 2
e 121 149 8
e 121 163 2
e 121 133 8
e 121 145 1
e 121 157 9
e 121 122 3
e 121 123 3
e 121 124 7
e 121 125 6
e 121 126 2
e 121 127 5
e 121 128 7
e 121 129 9
e 121 130 1
e 121 134 3
e 121 147 6
e 121 160 8
e 122 136 5
e 122 150 5
e 122 164 2
e 122 134 2
e 122 146 6
e 122 158 5
e 122 123 6
e 122 124 9
e 122 125 1
e 122 126 3
e 122 127 8
e 122 128 5
e 122 129 10
e 122 130 5
e 122 135 6
e 122 148 1
e 122 161 2
e 123 137 6
e 123 151 3
e 123 165 2
e 123 135 9
e 123 147 1
e 123 159 7
e 123 124 9
e 123 125 9
e 123 126 1
e 123 127 5
e 123 128 3
e 123 129 2
e 123 130 8
e 123 136 7
e 123 149 4
e 123 162 10
e 124 138 10
e 124 152 7
e 124 166 6
e 124 136 1
e 124 148 8
e 124 160 3
e 124 125 2
e 124 126 4
e 124 127 3
e 124 128 7
e 124 129 3
e 124 130 7
e 124 137 6
e 124 150 4
e 124 163 4
e 125 139 8
e 125 153 3
e 125 167 2
e 125 137 2
e 125 149 4
e 125 161 1
e 125 126 6
e 125 127 6
e 125 128 7
e 125 129 6
e 125 130 1
e 125 138 9
e 125 151 4
e 125 164 8
e 126 140 3
e 126 154 6
e 126 168 8
e 126 138 3
e 126 150 7
e 126 162 3
e 126 127 8
e 126 128 4
e 126 129 9
e 126 130 8
e 126 139 4
e 126 152 1
e 126 165 6
e 127 141 3
e 127 155 8
e 127 169 4
e 127 139 6
e 127 151 3
e 127 163 7
e 127 128 3
e 127 129 2
e 127 130 9
e 127 140 1
e 127 153 1
e 127 166 10
e 128 142 8
e 128 156 6
e 128 140 3
e 128 152 7
e 128 164 4
e 128 129 4
e 128 130 2
e 128 141 1
e 128 154 7
e 128 167 8
e 129 143 8
e 129 141 1
e 129 153 7
e 129 165 2
e 129 130 2
e 129 142 7
e 129 155 5
e 129 168 3
e 130 142 1
e 130 154 2
e 130 166 6
e 130 143 4
e 130 156 1
e 130 169 3
e 131 145 7
e 131 159 2
e 131 132 6
e 131 133 3
e 131 134 8
e 131 135 4
e 131 136 1
e 131 137 7
e 131 138 6
e 131 139 9
e 131 140 2
e 131 141 6
e 131 142 3
e 131 143 5
e 131 144 4
e 131 157 9
e 132 146 5
e 132 160 2
e 132 144 10
e 132 133 6
e 132 134 7
e 132 135 8
e 132 136 6
e 132 137 1
e 132 138 2
e 132 139 5
e 132 140 4
e 132 141 9
e 132 142 9
e 132 143 1
e 132 145 9
e 132 158 9
e 133 147 8
e 133 161 8
e 133 145 10
e 133 157 3
e 133 134 10
e 133 135 10
e 133 136 8
e 133 137 9
e 133 138 10
e 133 139 10
e 133 140 8
e 133 141 3
e 133 142 4
e 133 143 2
e 133 146 5
e 133 159 3
e 134 148 10
e 134 162 7
e 134 146 9
e 134 158 8
e 134 135 5
e 134 136 7
e 134 137 4
e 134 138 9
e 134 139 9
e 134 140 6
e 134 141 8
e 134 142 7
e 134 143 7
e 134 147 10
e 134 160 7
e 135 149 9
e 135 163 4
e 135 147 1
e 135 159 1
e 135 136 3
e 135 137 7
e 135 138 5
e 135 139 10
e 135 140 2
e 135 141 5
e 135 142 4
e 135 143 2
e 135 148 1
e 135 161 2
e 136 150 10
e 136 164 4
e 136 148 6
e 136 160 5
e 136 137 8
e 136 138 5
e 136 139 6
e 136 140 1
e 136 141 3
e 136 142 4
e 136 143 9
e 136 149 2
e 136 162 1
e 137 151 5
e 137 165 3
e 137 149 2
e 137 161 4
e 137 138 5
e 137 139 4
e 137 140 6
e 137 141 1
e 137 142 9
e 137 143 7
e 137 150 5
e 137 163 8
e 138 152 2
e 138 166 6
e 138 150 2
e 138 162 10
e 138 139 5
e 138 140 4
e 138 141 2
e 138 142 6
e 138 143 10
e 138 151 6
e 138 164 7
e 139 153 6
e 139 167 8
e 139 151 3
e 139 163 8
e 139 140 10
e 139 141 5
e 139 142 8
e 139 143 9
e 139 152 4
e 139 165 5
e 140 154 7
e 140 168 2
e 140 152 7
e 140 164 2
e 140 141 3
e 140 142 1
e 140 143 10
e 140 153 6
e 140 166 2
e 141 155 5
e 141 169 7
e 141 153 6
e 141 165 2
e 141 142 3
e 141 143 8
e 141 154 4
e 141 167 1
e 142 156 9
e 142 154 7
e 142 166 10
e 142 143 3
e 142 155 9
e 142 168 3
e 143 155 7
e 143 167 10
e 143 156 10
e 143 169 5
e 144 158 8
e 144 145 10
e 144 146 4
e 144 147 4
e 144 148 3
e 144 149 1
e 144 150 3
e 144 151 5
e 144 152 10
e 144 153 8
e 144 154 1
e 144 155 7
e 144 156 10
e 144 157 4
e 145 159 5
e 145 157 10
e 145 146 6
e 145 147 5
e 145 148 4
e 145 149 2
e 145 150 10
e 145 151 1
e 145 152 5
e 145 153 10
e 145 154 5
e 145 155 9
e 145 156 10
e 145 158 4
e 146 160 5
e 146 158 10
e 146 147 7
e 146 148 10
e 146 149 2
e 146 150 5
e 146 151 4
e 146 152 7
e 146 153 5
e 146 154 10
e 146 155 6
e 146 156 5
e 146 159 9
e 147 161 9
e 147 159 5
e 147 148 1
e 147 149 5
e 147 150 10
e 147 151 5
e 147 152 2
e 147 153 2
e 147 154 9
e 147 155 8
e 147 156 2
e 147 160 9
e 148 162 2
e 148 160 7
e 148 149 6
e 148 150 7
e 148 151 6
e 148 152 6
e 148 153 3
e 148 154 3
e 148 155 1
e 148 156 4
e 148 161 10
e 149 163 9
e 149 161 5
e 149 150 6
e 149 151 4
e 149 152 10
e 149 153 10
e 149 154 10
e 149 155 10
e 149 156 7
e 149 162 2
e 150 164 3
e 150 162 9
e 150 151 3
e 150 152 2
e 150 153 1
e 150 154 4
e 150 155 6
e 150 156 7
e 150 163 1
e 151 165 10
e 151 163 10
e 151 152 6
e 151 153 10
e 151 154 2
e 151 155 6
e 151 156 6
e 151 164 10
e 152 166 3
e 152 164 3
e 152 153 6
e 152 154 1
e 152 155 1
e 152 156 9
e 152 165 6
e 153 167 3
e 153 165 10
e 153 154 9
e 153 155 4
e 153 156 10
e 153 166 10
e 154 168 8
e 154 166 8
e 154 155 7
e 154 156 7
e 154 167 8
e 155 169 7
e 155 167 8
e 155 156 7
e 155 168 4
e 156 168 9
e 156 169 5
e 157 158 8
e 157 159 6
e 157 160 3
e 157 161 2
e 157 162 8
e 157 163 7
e 157 164 5
e 157 165 8
e 157 166 5
e 157 167 7
e 157 168 9
e 157 169 5
e 158 159 9
e 158 160 9
e 158 161 8
e 158 162 8
e 158 163 1
e 158 164 4
e 158 165 5
e 158 166 5
e 158 167 1
e 158 168 8
e 158 169 6
e 159 160 4
e 159 161 9
e 159 162 6
e 159 163 4
e 159 164 2
e 159 165 7
e 159 166 1
e 159 167 2
e 159 168 4
e 159 169 2
e 160 161 7
e 160 162 4
e 160 163 7
e 160 164 5
e 160 165 1
e 160 166 9
e 160 167 9
e 160 168 6
e 160 169 4
e 161 162 7
e 161 163 10
e 161 164 2
e 161 165 8
e 161 166 8
e 161 167 5
e 161 168 4
e 161 169 5
e 162 163 4
e 162 164 5
e 162 165 8
e 162 166 10
e 162 167 8
e 162 168 4
e 162 169 4
e 163 164 3
e 163 165 6
e 163 166 6
e 163 167 4
e 163 168 5
e 163 169 9
e 164 165 6
e 164 166 2
e 164 167 7
e 164 168 1
e 164 169 8
e 165 166 2
e 165 167 1
e 165 168 3
e 165 169 9
e 166 167 10
e 166 168 1
e 166 169 8
e 167 168 3
e 167 169 10
e 168 169 2